<number of tasks>
100

<cycle time>
1000

<order strength>
0.595


<task times>
1 288
2 592
3 433
4 415
5 440
6 742
7 513
8 537
9 548
10 332
11 442
12 354
13 362
14 391
15 627
16 557
17 561
18 371
19 601
20 502
21 461
22 521
23 606
24 506
25 429
26 471
27 604
28 652
29 216
30 441
31 572
32 553
33 642
34 292
35 397
36 534
37 295
38 366
39 310
40 376
41 668
42 596
43 518
44 541
45 421
46 477
47 592
48 503
49 641
50 554
51 433
52 529
53 415
54 521
55 564
56 634
57 549
58 463
59 598
60 581
61 368
62 901
63 562
64 383
65 594
66 376
67 547
68 268
69 423
70 482
71 402
72 478
73 478
74 547
75 503
76 486
77 583
78 551
79 619
80 329
81 682
82 484
83 514
84 489
85 405
86 511
87 411
88 481
89 509
90 768
91 376
92 306
93 481
94 533
95 346
96 439
97 644
98 403
99 742
100 772

<precedence relations>
1,4
1,6
1,7
1,8
2,5
3,7
4,10
5,9
5,11
5,12
5,13
6,11
6,46
6,52
6,54
7,11
7,12
7,13
7,22
8,11
8,18
8,41
9,14
10,15
11,16
11,47
11,76
12,17
12,18
13,33
13,44
13,46
13,53
14,22
15,19
16,20
17,21
17,23
17,24
18,54
19,25
20,31
21,26
22,28
22,29
22,32
22,47
23,27
23,31
23,33
23,45
23,46
24,30
24,31
25,34
26,40
27,35
28,37
29,38
30,39
31,36
31,55
31,81
32,41
33,43
34,43
35,43
36,42
37,43
38,44
39,45
40,43
40,45
40,46
40,47
41,43
41,46
41,53
42,48
43,49
43,50
43,52
43,54
43,55
44,50
44,51
45,50
45,51
45,52
45,53
45,54
45,55
46,50
46,51
46,55
47,53
47,60
48,57
49,58
50,56
50,61
51,60
51,64
51,70
52,59
52,60
52,71
53,64
53,81
54,59
54,70
54,71
55,85
55,97
56,62
57,64
58,63
60,78
60,85
60,88
61,65
61,71
62,66
63,67
64,69
64,71
64,87
65,68
65,70
66,76
67,73
68,74
69,75
70,72
70,78
70,81
70,82
71,77
71,78
72,79
73,80
74,81
75,82
76,81
77,93
77,94
78,92
78,93
79,83
80,84
81,86
81,87
81,88
82,85
82,86
83,90
84,91
85,89
85,93
86,90
86,92
86,94
86,95
87,91
87,95
87,99
88,90
88,92
88,94
89,96
90,99
92,100
93,98
94,97
94,98
95,97
95,98

<end>
